
        $ From http://www.csplib.org/Problems/prob009/data/helmut.pdf
        $ Problem number 2
        $ Sequence length : 22
        language ESSENCE' 1.0
        letting sizemaster be 110
        letting sizes be sequence(2,3,4,6,7,8,12,13,14,15,16,17,18,21,22,23,24,26,27,28,50,60)
        